experiment/data/hgs-res/Vrp-Set-F-n135/Vrp-Set-F-n135-hgs/0.hgs1.tour
Route #1: 120 109 108 107 106 114 115
Route #2: 17 81 113 129 128 127 121 122 123 124 126 112 125 111 110 69 70 68 133 78
Route #3: 73 74 134 76 77 64 63 79 67 80 33 71 66
Route #4: 22 24 23 59 31 30 58 52 51 50 49 48 34 32 47
Route #5: 72 75 1 62 53 102 104 101 35 36 99 100 98 37 95 39 38 96 97 105 57 56 103 55 54 61 60
Route #6: 82 20 83 84 85 86 87 89 90 16 13 15 88 14 11 12 10 9 8 7 6 5 4 2 42 41 3 40 43 44 45 94 93 29 92 28 27 26 25 21 91
Route #7: 19 65 130 119 117 131 116 132 18 118 46
Cost 1162.96
